
Gurobi 11.0.3 (linux64) logging started Mon 18 Nov 2024 08:12:57 PM CST

Set parameter LogFile to value "/home/dlcole3/graph_abstraction/hierarchical_graphs/git_storage/CS1/HP_low_reserves/gurobi_logs/serial/logfile_ST7_5.log"

Gurobi 11.0.3 (linux64) logging started Mon 18 Nov 2024 08:14:35 PM CST

Set parameter LogFile to value "/home/dlcole3/graph_abstraction/hierarchical_graphs/git_storage/CS1/HP_low_reserves/gurobi_logs/serial/logfile_ST7_5.log"
Gurobi Optimizer version 11.0.3 build v11.0.3rc0 (linux64 - "Ubuntu 18.04.3 LTS")

CPU model: Intel(R) Xeon(R) CPU E5-2698 v4 @ 2.20GHz, instruction set [SSE2|AVX|AVX2]
Thread count: 40 physical cores, 80 logical processors, using up to 20 threads

Optimize a model with 29168 rows, 50688 columns and 136175 nonzeros
Model fingerprint: 0x96263288
Variable types: 46944 continuous, 3744 integer (3744 binary)
Coefficient statistics:
  Matrix range     [6e-01, 2e+04]
  Objective range  [2e+00, 2e+04]
  Bounds range     [5e-02, 2e+05]
  RHS range        [5e-02, 7e+03]
Presolve removed 14420 rows and 38729 columns
Presolve time: 0.35s
Presolved: 14748 rows, 11959 columns, 62903 nonzeros
Variable types: 8975 continuous, 2984 integer (2984 binary)
Found heuristic solution: objective 177912.39405
Found heuristic solution: objective 174117.95091
Found heuristic solution: objective 168925.26561

Root relaxation: objective 4.539726e+04, 8122 iterations, 0.39 seconds (0.27 work units)

    Nodes    |    Current Node    |     Objective Bounds      |     Work
 Expl Unexpl |  Obj  Depth IntInf | Incumbent    BestBd   Gap | It/Node Time

     0     0 45397.2647    0   20 168925.266 45397.2647  73.1%     -    1s
H    0     0                    55131.873736 45397.2647  17.7%     -    1s
     0     0 45397.2647    0   20 55131.8737 45397.2647  17.7%     -    1s
     0     2 45397.2647    0   20 55131.8737 45397.2647  17.7%     -    2s
H   31    52                    54664.094335 45397.2805  17.0%  34.3    2s
H   34    52                    54401.222651 45397.2805  16.6%  34.7    2s
H   45    52                    46793.816160 45397.3147  2.98%  27.9    2s
H  172   123                    46598.053685 45397.3147  2.58%  17.4    2s
H  455   331                    46329.651956 45397.3147  2.01%  10.4    3s
H  458   331                    46113.180301 45397.3147  1.55%  10.4    3s
H  474   312                    46087.068301 45417.4426  1.45%  10.4    3s
H  488   312                    46079.980295 45417.4426  1.44%  10.3    3s
H  644   384                    46057.682821 45436.0488  1.35%   9.5    3s
H  665   384                    45994.166071 45436.0488  1.21%   9.3    3s
H  791   433                    45993.796230 45436.0488  1.21%   8.3    3s
H  873   474                    45993.333321 45436.0488  1.21%   8.0    3s
H  937   524                    45992.918025 45436.0488  1.21%   7.7    3s
H  938   524                    45992.711935 45436.0488  1.21%   7.7    3s
H  993   573                    45992.645191 45436.0488  1.21%   7.5    3s
H 1109   642                    45982.390180 45436.0488  1.19%   7.1    3s
H 1154   642                    45980.055871 45436.0488  1.18%   7.0    3s
H 1295   676                    45978.495399 45759.0328  0.48%   6.7    3s
H 1302   676                    45968.227871 45759.0328  0.46%   6.6    3s
H 1302   676                    45966.779041 45759.0328  0.45%   6.6    3s
H 1345   707                    45953.943871 45759.0328  0.42%   6.5    4s
H 1428   728                    45948.071698 45759.0328  0.41%   6.3    4s
H 1516   750                    45947.747910 45769.5191  0.39%   6.1    4s
H 1518   750                    45947.384766 45769.5191  0.39%   6.1    4s
H 1579   750                    45946.440576 45769.5191  0.39%   6.0    4s
H 1674   793                    45945.704831 45771.2862  0.38%   5.8    4s
  1696   805     cutoff   15      45945.7048 45771.3383  0.38%   5.8    7s
H 1698   805                    45945.701794 45771.3383  0.38%   5.8    7s
H 1715   805                    45933.507123 45771.3383  0.35%   5.7    7s

Explored 2266 nodes (19471 simplex iterations) in 7.58 seconds (5.74 work units)
Thread count was 20 (of 80 available processors)

Solution count 10: 45933.5 45933.5 45945.7 ... 45980.1

Optimal solution found (tolerance 3.00e-03)
Best objective 4.593350711948e+04, best bound 4.592438592886e+04, gap 0.0199%

User-callback calls 7259, time in user-callback 0.00 sec
